// FEASIBLE
// COST 781
nNurses=781;
minHours=3;
maxPresence=12;
maxHours=10;
maxConsec=6;
hoursDay=24;
demand=[261 262 261 256 266 265 256 257 259 261 250 250 253 258 261 256 258 258 257 265 259 257 251 266];
